27 69 31 88 62 11 19 49 46 17 5 93 98 100 37 97 58 
21 72 75 39 67 23 56 4 55 25 54 26 
50 33 81 65 66 71 35 34 29 24 80 12 
89 60 83 45 86 38 44 16 61 84 8 82 7 10 70 1 
52 18 48 47 36 64 63 90 32 30 20 51 9 78 79 3 68 77 28 
76 40 53 
94 95 92 42 15 43 14 91 85 59 99 96 6 87 57 41 22 74 73 2 13 
